qe/outputs/qe/qe_queries_cbrdelay_obs_redo/T=5,eliminate=[I_0,I_1,I_2,I_3,I_4,L_1,L_2,L_3,L_4,C,B,S_4,lhs=A_4_3].smt2
; benchmark generated from python API
(set-info :status unknown)
(declare-fun S_1 () Real)
(declare-fun S_3 () Real)
(declare-fun S_0 () Real)
(declare-fun L_0 () Real)
(declare-fun A_0 () Real)
(declare-fun A_1 () Real)
(declare-fun S_2 () Real)
(declare-fun loss_rate_tol () Real)
(declare-fun A_3 () Real)
(declare-fun A_4 () Real)
(declare-fun A_2 () Real)
(assert
 (let (($x3939 (<= (+ (* (- 1.0) A_0) (* (- 1.0) S_3) L_0 (* 2.0 S_1)) 0.0)))
 (let (($x34 (>= L_0 0.0)))
 (let ((?x10671 (* (/ 3.0 2.0) loss_rate_tol)))
 (let ((?x1083 (* (- 1.0) S_0)))
 (let ((?x1879 (* (/ 3.0 2.0) A_3)))
 (let ((?x5517 (* (- (/ 3.0 2.0)) A_4)))
 (let (($x40124 (not (<= 0.0 (+ S_3 ?x5517 ?x1879 ?x1083 ?x10671)))))
 (let (($x38008 (not (<= (- 5.0) (+ (* (- (/ 1.0 4.0)) A_4) (* (/ 1.0 4.0) A_3))))))
 (let ((?x1508 (* (- (/ 1.0 3.0)) A_4)))
 (let ((?x6248 (+ (* (/ 1.0 3.0) A_1) ?x1508 (* (/ 1.0 3.0) loss_rate_tol))))
 (let (($x37680 (not (<= (- 5.0) ?x6248))))
 (let (($x37610 (not (<= (- 5.0) (+ (* (/ 1.0 6.0) L_0) (* (- (/ 1.0 6.0)) A_4) (* (/ 1.0 6.0) S_1))))))
 (let (($x36536 (not (<= 0.0 loss_rate_tol))))
 (let ((?x2816 (* 2.0 loss_rate_tol)))
 (let ((?x369 (* (- 1.0) S_2)))
 (let ((?x2227 (* 2.0 A_3)))
 (let ((?x2494 (* (- 2.0) A_4)))
 (let ((?x1283 (* 2.0 S_3)))
 (let (($x38220 (not (<= 0.0 (+ ?x1283 ?x2494 ?x2227 ?x369 ?x1083 ?x2816)))))
 (let (($x89921 (or $x36536 $x37610 $x37680 (not (<= (- 5.0) (+ S_3 (* (- 1.0) A_4) A_3 (* (- 1.0) S_1)))) $x38220)))
 (let (($x40796 (<= (- 5.0) (+ (* (/ 1.0 3.0) L_0) (* (- (/ 1.0 3.0)) A_3) (* (/ 1.0 3.0) S_0)))))
 (let (($x37896 (not (<= (- 5.0) (+ S_3 (* (- 1.0) A_4) A_3 ?x369 loss_rate_tol)))))
 (let (($x41527 (not (<= 0.0 (+ (* (- (/ 1.0 2.0)) A_4) (* (/ 1.0 2.0) A_3) S_1 ?x1083)))))
 (let ((?x4650 (* (- (/ 3.0 2.0)) S_0)))
 (let ((?x3208 (* (/ 3.0 2.0) S_1)))
 (let ((?x397 (* (- 1.0) A_4)))
 (let (($x40540 (not (<= 0.0 (+ A_1 ?x397 ?x3208 ?x4650 loss_rate_tol)))))
 (let (($x37034 (not (<= 0.0 (+ (* (/ 1.0 3.0) L_0) ?x1508 (* (/ 4.0 3.0) S_1) ?x1083)))))
 (let (($x40804 (<= 0.0 (+ (* (- 1.0) A_0) L_0 (* (- (/ 1.0 4.0)) A_4) (* (/ 1.0 4.0) A_3) S_1))))
 (let (($x40805 (not $x40804)))
 (let (($x39059 (<= 0.0 (+ (* (- 1.0) A_0) L_0 ?x397 A_3 S_1 loss_rate_tol))))
 (let ((?x1476 (* (- (/ 1.0 6.0)) A_4)))
 (let ((?x1097 (* (- 1.0) A_0)))
 (let (($x37041 (not (<= 0.0 (+ ?x1097 (* (/ 7.0 6.0) L_0) ?x1476 (* (/ 7.0 6.0) S_1))))))
 (let (($x37900 (not (<= 0.0 (+ ?x1097 S_3 L_0 ?x397 A_3 loss_rate_tol)))))
 (let (($x37439 (not (<= (- 5.0) (+ (* (/ 1.0 4.0) S_3) (* (/ 1.0 4.0) L_0) (* (- (/ 1.0 4.0)) A_4))))))
 (let (($x1280 (<= (+ (* (- (/ 3.0 2.0)) S_3) (* (- 1.0) L_0) A_3 (* (/ 1.0 2.0) S_0)) 0.0)))
 (let (($x89163 (or $x36536 $x37034 (not (<= 0.0 (+ ?x397 A_2 S_1 ?x1083 loss_rate_tol))) $x41527)))
 (let ((?x6262 (* (/ 1.0 2.0) loss_rate_tol)))
 (let ((?x3464 (* (/ 1.0 2.0) A_2)))
 (let ((?x1490 (* (- (/ 1.0 2.0)) A_4)))
 (let (($x88590 (or $x36536 $x37041 (not (<= 0.0 (+ ?x1097 L_0 ?x1490 ?x3464 S_1 ?x6262))) $x40805)))
 (let (($x37888 (not (<= (- 10.0) (+ ?x397 A_3 loss_rate_tol)))))
 (let (($x37728 (not (<= (- 5.0) (+ ?x1490 ?x3464 ?x6262)))))
 (let (($x87579 (or $x36536 $x37610 $x37728 (<= 0.0 (+ S_3 (* (- 1.0) A_3) A_1 (* (- 1.0) S_1))))))
 (let (($x40836 (<= 0.0 (+ ?x397 A_3 (* (/ 1.0 2.0) S_1) (* (- (/ 1.0 2.0)) S_0) loss_rate_tol))))
 (let (($x37361 (not (<= (- 5.0) (+ (* (/ 1.0 7.0) L_0) (* (- (/ 1.0 7.0)) A_4) (* (/ 1.0 7.0) S_0))))))
 (let (($x38030 (not (<= 0.0 (+ S_3 ?x397 A_3 (* (- 1.0) S_1) loss_rate_tol)))))
 (let (($x38669 (not (<= (- 5.0) (+ (* (/ 1.0 5.0) L_0) (* (- (/ 1.0 5.0)) A_4) (* (/ 1.0 5.0) S_2))))))
 (let (($x41291 (not (<= 0.0 (+ (* (- (/ 3.0 4.0)) A_4) (* (/ 3.0 4.0) A_3) S_2 ?x1083)))))
 (let ((?x2834 (* 3.0 loss_rate_tol)))
 (let ((?x2832 (* 3.0 A_3)))
 (let ((?x2772 (* (- 3.0) A_4)))
 (let (($x38656 (<= 0.0 (+ (* (/ 3.0 5.0) L_0) (* (- (/ 3.0 5.0)) A_4) (* (/ 8.0 5.0) S_2) ?x1083))))
 (let (($x38658 (not $x38656)))
 (let (($x37498 (<= 0.0 (+ ?x1097 (* (/ 7.0 5.0) L_0) (* (- (/ 2.0 5.0)) A_4) (* (/ 7.0 5.0) S_2)))))
 (let (($x37499 (not $x37498)))
 (let (($x88050 (or $x1280 $x36536 $x37499 (not (<= 0.0 (+ ?x1097 L_0 ?x2494 ?x2227 S_2 ?x2816))))))
 (let (($x38332 (not (<= 0.0 (+ S_3 ?x5517 (* (/ 3.0 2.0) A_2) (* (- 1.0) S_1) ?x10671)))))
 (let ((?x363 (* (- 1.0) S_1)))
 (let ((?x5497 (* (- (/ 3.0 4.0)) A_4)))
 (let ((?x4798 (* (/ 7.0 4.0) S_3)))
 (let (($x37747 (not (<= 0.0 (+ ?x4798 (* (/ 3.0 4.0) L_0) ?x5497 ?x363)))))
 (let (($x41443 (not (<= 0.0 (+ ?x1097 L_0 ?x1490 (* (/ 1.0 2.0) A_3) S_2)))))
 (let (($x85972 (or $x36536 $x37499 (not (<= 0.0 (+ ?x1097 L_0 ?x397 A_2 S_2 loss_rate_tol))) $x41443)))
 (let (($x39073 (not (<= 0.0 (+ A_1 ?x397 S_2 ?x1083 loss_rate_tol)))))
 (let (($x88773 (or $x36536 $x38658 (not (<= 0.0 (+ ?x5517 (* (/ 3.0 2.0) A_2) S_2 ?x1083 ?x10671))) $x41291)))
 (let (($x40984 (not (<= 0.0 (+ ?x1490 (* (/ 1.0 2.0) A_3) S_2 ?x363)))))
 (let (($x37751 (<= 0.0 (+ (* (/ 2.0 5.0) L_0) (* (- (/ 2.0 5.0)) A_4) (* (/ 7.0 5.0) S_2) ?x363))))
 (let (($x37752 (not $x37751)))
 (let (($x86801 (or $x36536 $x37752 (not (<= 0.0 (+ ?x397 A_2 S_2 ?x363 loss_rate_tol))) $x40984)))
 (let ((?x6168 (* (/ 4.0 3.0) loss_rate_tol)))
 (let ((?x6170 (* (- (/ 4.0 3.0)) A_4)))
 (let ((?x6258 (* (/ 4.0 3.0) A_1)))
 (let (($x38391 (not (<= 0.0 (+ S_3 ?x6258 ?x6170 ?x1083 ?x6168)))))
 (let (($x37633 (not (<= 0.0 (+ ?x1283 L_0 ?x397 ?x1083)))))
 (let (($x87575 (or $x36536 $x37633 (not (<= 0.0 (+ S_3 ?x2494 (* 2.0 A_2) ?x1083 ?x2816))))))
 (let ((?x6246 (* (/ 2.0 3.0) loss_rate_tol)))
 (let ((?x1614 (* (- (/ 2.0 3.0)) A_4)))
 (let ((?x4752 (* (/ 2.0 3.0) A_1)))
 (let (($x44418 (or $x36536 $x37752 $x38030 (not (<= 0.0 (+ ?x4752 ?x1614 S_2 ?x363 ?x6246))) $x40984)))
 (let (($x44647 (or $x36536 $x37499 $x37900 (not (<= 0.0 (+ ?x1097 L_0 ?x4752 ?x1614 S_2 ?x6246))) $x41443)))
 (let (($x36922 (not (<= 0.0 (+ (* (/ 3.0 2.0) S_3) (* (/ 1.0 2.0) L_0) ?x1490 ?x369)))))
 (let (($x45609 (or $x36536 $x36922 (not (<= 0.0 (+ S_3 ?x397 A_2 ?x369 loss_rate_tol))))))
 (let ((?x1082 (* 3.0 S_1)))
 (let (($x38988 (<= 0.0 (+ (* (- 3.0) A_0) (* 3.0 L_0) A_1 ?x397 ?x1082 loss_rate_tol))))
 (let (($x37643 (not (<= 0.0 (+ ?x1097 ?x4798 (* (/ 7.0 4.0) L_0) ?x5497)))))
 (let (($x40527 (or $x36536 $x37643 (not (<= 0.0 (+ ?x1097 S_3 L_0 ?x2772 ?x2832 ?x2834))))))
 (let (($x44897 (or $x36536 (not (<= 0.0 (+ ?x1097 S_3 L_0 A_1 ?x397 loss_rate_tol))) $x37643)))
 (let (($x40190 (or $x36536 $x37747 (not (<= 0.0 (+ S_3 A_1 ?x397 ?x363 loss_rate_tol))))))
 (let ((?x2771 (* 4.0 loss_rate_tol)))
 (let ((?x1238 (* 4.0 A_3)))
 (let ((?x2812 (* (- 4.0) A_4)))
 (let (($x44099 (or $x36536 $x37643 (not (<= 0.0 (+ ?x1097 S_3 L_0 ?x5517 (* (/ 3.0 2.0) A_2) ?x10671))))))
 (let (($x108 (>= S_1 S_0)))
 (let (($x111 (>= S_2 S_1)))
 (let (($x114 (>= S_3 S_2)))
 (let (($x120 (>= A_2 A_1)))
 (let (($x121 (>= A_3 A_2)))
 (let (($x122 (>= A_4 A_3)))
 (and (<= (+ A_0 (* (- 1.0) L_0)) S_3) $x122 $x121 $x120 $x114 $x111 $x108 (or $x36536 $x36922 (not (<= 0.0 (+ S_3 ?x4752 ?x1614 ?x369 ?x6246)))) (or (not (<= (- 5.0) (+ ?x397 A_3 loss_rate_tol))) $x36536 $x37439) (or $x36536 (not (<= 0.0 (+ S_3 ?x2494 ?x2227 ?x369 ?x2816))) $x36922) $x44099 (or $x36536 $x37439 $x37728) (or $x36536 $x37633 (not (<= 0.0 (+ S_3 ?x2812 ?x1238 ?x1083 ?x2771)))) (or $x36536 $x37439 $x37680 $x37896) (or $x36536 (not (<= (- 5.0) (+ ?x397 A_3))) $x37361) (or $x36536 $x37747 (not (<= 0.0 (+ S_3 ?x2772 ?x2832 ?x363 ?x2834)))) $x40190 $x44897 $x40527 (or $x36536 $x37041 $x37900 (not $x38988) $x40805) $x45609 $x44647 $x44418 (or $x36536 $x37900 $x38658 $x39073 $x41291) (or $x36536 $x37361 $x37680 $x37888 $x38008) (or $x36536 $x37752 (not (<= 0.0 (+ ?x2494 ?x2227 S_2 ?x363 ?x2816))) $x40984) (or $x36536 $x37633 $x38030 $x38391) (or $x36536 $x37633 $x38391 $x40124) (or (not (<= (- 5.0) (+ ?x397 A_3 loss_rate_tol))) $x36536 $x38008 $x38669) (or $x36536 $x38008 (not (<= (- 5.0) (+ ?x397 A_3 loss_rate_tol))) $x37610) (or $x36536 $x38030 $x38658 $x39073 $x41291) $x87575 (or $x36536 $x37439 $x37680 $x38030) (or $x36536 $x37633 $x38220 $x38391) (or $x36536 $x37633 $x37900 $x38391) $x86801 $x88773 (or $x36536 $x38658 $x39073 $x40124 $x41291) (or $x36536 $x37680 $x37888 $x38008 $x38669) (or $x36536 $x37680 $x38008 $x38669 $x40124) (or $x36536 $x37680 $x37900 $x38008 $x38669) (or $x36536 $x37680 $x38008 $x38030 $x38669) (or $x36536 $x37439 $x37680 $x38220) $x85972 (or $x37361 $x37728 (<= (- 10.0) (+ ?x397 A_2)) $x40796) (or $x36536 $x37747 $x38332) $x88050 (or $x36536 $x38658 (not (<= 0.0 (+ ?x2772 ?x2832 S_2 ?x1083 ?x2834))) $x41291) (or $x36536 $x37728 $x38008 $x38669) (or (not (<= (- 5.0) (+ ?x397 A_3 loss_rate_tol))) $x36536 $x37361 $x40796) (or $x36536 $x37361 (not (<= (- 10.0) (+ ?x397 A_2)))) (or $x36536 $x37610 $x37680 $x37900 $x38008) (or $x36536 $x37361 $x37680 $x38008 $x38030) (or $x36536 $x37361 $x37680 $x37896 $x40796) (or $x36536 $x37361 $x37680 $x37900 $x38008) (or $x36536 $x37034 (not $x40836) $x41527) (or $x37610 $x37680 $x37896 $x38008 (<= (- 15.0) (+ ?x397 A_1))) (or $x36536 $x37034 $x37900 $x40540 $x41527) $x87579 (or $x36536 $x37610 $x37728 $x38008) (or $x36536 $x37610 $x37680 $x37888 $x38008) $x88590 (or $x36536 $x37439 $x37680 $x40124) $x89163 (or $x1280 $x36536 $x37610 $x37680 $x38220) (or $x36536 $x37610 $x37680 $x38220 $x41527) (or $x36536 $x37034 $x38220 $x40540 $x41527) (or $x36536 $x37610 $x37680 $x37896 $x38008) (or $x36536 $x37439 $x37680 $x37900) (or $x36536 $x37041 (not $x39059) $x40805) (or $x36536 $x37034 $x40124 $x40540 $x41527) (or $x37610 $x37680 $x38008 $x38220 (<= (- 15.0) (+ ?x397 A_1))) (or $x36536 $x37896 $x38008 (not $x40796)) $x89921 (or $x36536 $x37610 $x37680 $x38008 $x38220) (or $x36536 $x37610 $x37680 $x38008 $x40124) $x34 (<= (+ ?x1097 L_0 S_0) 0.0) (<= (+ ?x369 S_0) (- 5.0)) (<= (+ (* (/ 1.0 3.0) S_3) ?x369 (* (/ 2.0 3.0) S_0)) 0.0) (not (>= (+ S_3 L_0 (* (- 1.0) A_1)) 0.0)) (<= (+ (* (- 2.0) S_3) ?x1082 ?x1083) 0.0) $x3939 (<= (+ (* (- (/ 1.0 2.0)) S_3) (* (/ 1.0 2.0) S_0)) (- 5.0)) (<= (+ (* (- 1.0) S_3) S_1) (- 5.0))))))))))))))))))))))))))))))))))))))))))))))))))))))))))))))))))))))))))))))))))))))))))))))))))))))))
(check-sat)
